20
1 0 2
2 0 2
2 1 2
3 0 1
3 1 2
3 2 2
4 0 1
4 1 2
4 2 1
4 3 1
5 0 2
5 1 1
5 2 2
5 3 1
5 4 1
6 0 2
6 1 1
6 2 2
6 3 1
6 4 2
6 5 2
7 0 1
7 1 2
7 2 1
7 3 2
7 4 1
7 5 2
7 6 2
8 0 1
8 1 2
8 2 2
8 3 2
8 4 1
8 5 2
8 6 2
8 7 1
9 0 1
9 1 1
9 2 1
9 3 1
9 4 1
9 5 2
9 6 1
9 7 2
9 8 2
10 0 1
10 1 1
10 2 2
10 3 1
10 4 1
10 5 1
10 6 1
10 7 1
10 8 2
10 9 2
11 0 1
11 1 1
11 2 1
11 3 2
11 4 2
11 5 1
11 6 2
11 7 1
11 8 2
11 9 2
11 10 2
12 0 2
12 1 1
12 2 1
12 3 1
12 4 1
12 5 1
12 6 1
12 7 1
12 8 1
12 9 1
12 10 2
12 11 1
13 0 1
13 1 1
13 2 2
13 3 2
13 4 1
13 5 2
13 6 1
13 7 2
13 8 2
13 9 2
13 10 2
13 11 2
13 12 1
14 0 2
14 1 2
14 2 1
14 3 2
14 4 1
14 5 1
14 6 1
14 7 1
14 8 2
14 9 1
14 10 1
14 11 2
14 12 2
14 13 1
15 0 2
15 1 2
15 2 2
15 3 2
15 4 1
15 5 1
15 6 2
15 7 2
15 8 1
15 9 2
15 10 2
15 11 1
15 12 1
15 13 2
15 14 1
16 0 1
16 1 2
16 2 2
16 3 2
16 4 2
16 5 2
16 6 1
16 7 1
16 8 1
16 9 2
16 10 2
16 11 2
16 12 2
16 13 2
16 14 1
16 15 2
17 0 1
17 1 1
17 2 1
17 3 1
17 4 1
17 5 1
17 6 2
17 7 1
17 8 1
17 9 1
17 10 2
17 11 2
17 12 2
17 13 1
17 14 2
17 15 2
17 16 2
18 0 1
18 1 1
18 2 2
18 3 1
18 4 1
18 5 2
18 6 2
18 7 2
18 8 2
18 9 1
18 10 2
18 11 1
18 12 1
18 13 1
18 14 2
18 15 1
18 16 2
18 17 2
19 0 2
19 1 1
19 2 2
19 3 1
19 4 1
19 5 2
19 6 2
19 7 1
19 8 1
19 9 2
19 10 1
19 11 1
19 12 1
19 13 1
19 14 1
19 15 2
19 16 1
19 17 1
19 18 2
